(declare-const X String)
; fsbuff\s+User-Agent\x3Afrom\x3A
(assert (str.in.re X (re.++ (str.to.re "fsbuff") (re.+ (re.union (str.to.re " ") (str.to.re "\x09") (str.to.re "\x0a") (str.to.re "\x0c") (str.to.re "\x0d"))) (str.to.re "User-Agent:from:\x0a"))))
(check-sat)
